Version identifier: 22.1.1.0 | 2022-11-28 | 9160aff4d
CPXPARAM_Threads                                 8
CPXPARAM_Emphasis_MIP                            5
CPXPARAM_TimeLimit                               3600
CPXPARAM_MIP_Tolerances_MIPGap                   0.029999999999999999
Tried aggregator 2 times.
MIP Presolve eliminated 290 rows and 158 columns.
Aggregator did 74 substitutions.
Reduced MIP has 708 rows, 551 columns, and 2580 nonzeros.
Reduced MIP has 461 binaries, 90 generals, 0 SOSs, and 0 indicators.
Presolve time = 0.00 sec. (2.64 ticks)
Probing fixed 26 vars, tightened 25 bounds.
Probing time = 0.00 sec. (1.70 ticks)
Tried aggregator 1 time.
Detecting symmetries...
MIP Presolve eliminated 41 rows and 27 columns.
Reduced MIP has 667 rows, 524 columns, and 2418 nonzeros.
Reduced MIP has 434 binaries, 90 generals, 0 SOSs, and 0 indicators.
Presolve time = 0.00 sec. (2.39 ticks)
Probing time = 0.00 sec. (1.48 ticks)
Clique table members: 795.
MIP emphasis: heuristic.
MIP search method: dynamic search.
Parallel mode: deterministic, using up to 8 threads.
Root relaxation solution time = 0.02 sec. (4.88 ticks)

        Nodes                                         Cuts/
   Node  Left     Objective  IInf  Best Integer    Best Bound    ItCnt     Gap

      0     0      293.0000    75                    293.0000      259         
*     0+    0                          293.0000      293.0000             0.00%
      0     0        cutoff            293.0000      293.0000      259    0.00%
Elapsed time = 0.05 sec. (21.52 ticks, tree = 0.01 MB, solutions = 1)
Version identifier: 22.1.1.0 | 2022-11-28 | 9160aff4d
CPXPARAM_Threads                                 8
CPXPARAM_Emphasis_MIP                            5
CPXPARAM_TimeLimit                               3600
CPXPARAM_MIP_Tolerances_MIPGap                   0.029999999999999999
Tried aggregator 3 times.
MIP Presolve eliminated 376 rows and 217 columns.
Aggregator did 85 substitutions.
Reduced MIP has 1029 rows, 802 columns, and 3803 nonzeros.
Reduced MIP has 673 binaries, 129 generals, 0 SOSs, and 0 indicators.
Presolve time = 0.01 sec. (4.15 ticks)
Probing fixed 66 vars, tightened 64 bounds.
Probing time = 0.01 sec. (3.79 ticks)
Tried aggregator 1 time.
Detecting symmetries...
MIP Presolve eliminated 93 rows and 69 columns.
Reduced MIP has 936 rows, 733 columns, and 3416 nonzeros.
Reduced MIP has 604 binaries, 129 generals, 0 SOSs, and 0 indicators.
Presolve time = 0.00 sec. (3.33 ticks)
Probing time = 0.00 sec. (2.29 ticks)
Clique table members: 1996.
MIP emphasis: heuristic.
MIP search method: dynamic search.
Parallel mode: deterministic, using up to 8 threads.
Root relaxation solution time = 0.03 sec. (6.48 ticks)

        Nodes                                         Cuts/
   Node  Left     Objective  IInf  Best Integer    Best Bound    ItCnt     Gap

*     0     0      integral     0      293.0000      293.0000      405    0.00%
Elapsed time = 0.07 sec. (37.48 ticks, tree = 0.00 MB, solutions = 1)
Version identifier: 22.1.1.0 | 2022-11-28 | 9160aff4d
CPXPARAM_Threads                                 8
CPXPARAM_Emphasis_MIP                            5
CPXPARAM_TimeLimit                               3600
CPXPARAM_MIP_Tolerances_MIPGap                   0.029999999999999999
Tried aggregator 2 times.
MIP Presolve eliminated 418 rows and 249 columns.
Aggregator did 86 substitutions.
Reduced MIP has 1296 rows, 1017 columns, and 4814 nonzeros.
Reduced MIP has 857 binaries, 160 generals, 0 SOSs, and 0 indicators.
Presolve time = 0.01 sec. (4.65 ticks)
Probing fixed 95 vars, tightened 92 bounds.
Probing time = 0.01 sec. (5.56 ticks)
Tried aggregator 1 time.
Detecting symmetries...
MIP Presolve eliminated 128 rows and 98 columns.
Reduced MIP has 1168 rows, 919 columns, and 4273 nonzeros.
Reduced MIP has 759 binaries, 160 generals, 0 SOSs, and 0 indicators.
Presolve time = 0.00 sec. (2.96 ticks)
Probing time = 0.00 sec. (2.44 ticks)
Clique table members: 2878.
MIP emphasis: heuristic.
MIP search method: dynamic search.
Parallel mode: deterministic, using up to 8 threads.
Root relaxation solution time = 0.03 sec. (8.43 ticks)

        Nodes                                         Cuts/
   Node  Left     Objective  IInf  Best Integer    Best Bound    ItCnt     Gap

*     0     0      integral     0      349.0000      349.0000      432    0.00%
Elapsed time = 0.08 sec. (40.25 ticks, tree = 0.00 MB, solutions = 1)

Root node processing (before b&c):
  Real time             =    0.08 sec. (40.29 ticks)
Parallel b&c, 8 threads:
  Real time             =    0.00 sec. (0.00 ticks)
  Sync time (average)   =    0.00 sec.
  Wait time (average)   =    0.00 sec.
                          ------------
Total (root+branch&cut) =    0.08 sec. (40.29 ticks)

Root node processing (before b&c):
  Real time             =    0.07 sec. (37.51 ticks)
Parallel b&c, 8 threads:
  Real time             =    0.00 sec. (0.00 ticks)
  Sync time (average)   =    0.00 sec.
  Wait time (average)   =    0.00 sec.
                          ------------
Total (root+branch&cut) =    0.07 sec. (37.51 ticks)

Root node processing (before b&c):
  Real time             =    0.05 sec. (21.55 ticks)
Parallel b&c, 8 threads:
  Real time             =    0.00 sec. (0.00 ticks)
  Sync time (average)   =    0.00 sec.
  Wait time (average)   =    0.00 sec.
                          ------------
Total (root+branch&cut) =    0.05 sec. (21.55 ticks)
Version identifier: 22.1.1.0 | 2022-11-28 | 9160aff4d
CPXPARAM_Threads                                 8
CPXPARAM_Emphasis_MIP                            5
CPXPARAM_TimeLimit                               3600
CPXPARAM_MIP_Tolerances_MIPGap                   0.029999999999999999
Tried aggregator 2 times.
MIP Presolve eliminated 290 rows and 158 columns.
Aggregator did 74 substitutions.
Reduced MIP has 708 rows, 551 columns, and 2580 nonzeros.
Reduced MIP has 461 binaries, 90 generals, 0 SOSs, and 0 indicators.
Presolve time = 0.00 sec. (2.64 ticks)
Probing fixed 26 vars, tightened 25 bounds.
Probing time = 0.00 sec. (1.70 ticks)
Tried aggregator 1 time.
Detecting symmetries...
MIP Presolve eliminated 41 rows and 27 columns.
Reduced MIP has 667 rows, 524 columns, and 2418 nonzeros.
Reduced MIP has 434 binaries, 90 generals, 0 SOSs, and 0 indicators.
Presolve time = 0.00 sec. (2.39 ticks)
Probing time = 0.00 sec. (1.48 ticks)
Clique table members: 795.
MIP emphasis: heuristic.
MIP search method: dynamic search.
Parallel mode: deterministic, using up to 8 threads.
Root relaxation solution time = 0.02 sec. (4.88 ticks)

        Nodes                                         Cuts/
   Node  Left     Objective  IInf  Best Integer    Best Bound    ItCnt     Gap

      0     0      293.0000    75                    293.0000      259         
*     0+    0                          293.0000      293.0000             0.00%
      0     0        cutoff            293.0000      293.0000      259    0.00%
Elapsed time = 0.05 sec. (21.52 ticks, tree = 0.01 MB, solutions = 1)
Version identifier: 22.1.1.0 | 2022-11-28 | 9160aff4d
CPXPARAM_Threads                                 8
CPXPARAM_Emphasis_MIP                            5
CPXPARAM_TimeLimit                               3600
CPXPARAM_MIP_Tolerances_MIPGap                   0.029999999999999999
Tried aggregator 3 times.
MIP Presolve eliminated 376 rows and 217 columns.
Aggregator did 85 substitutions.
Reduced MIP has 1029 rows, 802 columns, and 3803 nonzeros.
Reduced MIP has 673 binaries, 129 generals, 0 SOSs, and 0 indicators.
Presolve time = 0.01 sec. (4.15 ticks)
Probing fixed 66 vars, tightened 64 bounds.
Probing time = 0.01 sec. (3.79 ticks)
Tried aggregator 1 time.
Detecting symmetries...
MIP Presolve eliminated 93 rows and 69 columns.
Reduced MIP has 936 rows, 733 columns, and 3416 nonzeros.
Reduced MIP has 604 binaries, 129 generals, 0 SOSs, and 0 indicators.
Presolve time = 0.00 sec. (3.33 ticks)
Probing time = 0.00 sec. (2.29 ticks)
Clique table members: 1996.
MIP emphasis: heuristic.
MIP search method: dynamic search.
Parallel mode: deterministic, using up to 8 threads.
Root relaxation solution time = 0.02 sec. (6.48 ticks)

        Nodes                                         Cuts/
   Node  Left     Objective  IInf  Best Integer    Best Bound    ItCnt     Gap

*     0     0      integral     0      293.0000      293.0000      405    0.00%
Elapsed time = 0.07 sec. (37.48 ticks, tree = 0.00 MB, solutions = 1)
Version identifier: 22.1.1.0 | 2022-11-28 | 9160aff4d
CPXPARAM_Threads                                 8
CPXPARAM_Emphasis_MIP                            5
CPXPARAM_TimeLimit                               3600
CPXPARAM_MIP_Tolerances_MIPGap                   0.029999999999999999
Tried aggregator 2 times.
MIP Presolve eliminated 418 rows and 249 columns.
Aggregator did 86 substitutions.
Reduced MIP has 1296 rows, 1017 columns, and 4814 nonzeros.
Reduced MIP has 857 binaries, 160 generals, 0 SOSs, and 0 indicators.
Presolve time = 0.01 sec. (4.65 ticks)
Probing fixed 95 vars, tightened 92 bounds.
Probing time = 0.01 sec. (5.56 ticks)
Tried aggregator 1 time.
Detecting symmetries...
MIP Presolve eliminated 128 rows and 98 columns.
Reduced MIP has 1168 rows, 919 columns, and 4273 nonzeros.
Reduced MIP has 759 binaries, 160 generals, 0 SOSs, and 0 indicators.
Presolve time = 0.00 sec. (2.96 ticks)
Probing time = 0.00 sec. (2.44 ticks)
Clique table members: 2878.
MIP emphasis: heuristic.
MIP search method: dynamic search.
Parallel mode: deterministic, using up to 8 threads.
Root relaxation solution time = 0.03 sec. (8.43 ticks)

        Nodes                                         Cuts/
   Node  Left     Objective  IInf  Best Integer    Best Bound    ItCnt     Gap

*     0     0      integral     0      349.0000      349.0000      432    0.00%
Elapsed time = 0.08 sec. (40.25 ticks, tree = 0.00 MB, solutions = 1)

Root node processing (before b&c):
  Real time             =    0.07 sec. (37.51 ticks)
Parallel b&c, 8 threads:
  Real time             =    0.00 sec. (0.00 ticks)
  Sync time (average)   =    0.00 sec.
  Wait time (average)   =    0.00 sec.
                          ------------
Total (root+branch&cut) =    0.07 sec. (37.51 ticks)
Version identifier: 22.1.1.0 | 2022-11-28 | 9160aff4d
CPXPARAM_Threads                                 8
CPXPARAM_Emphasis_MIP                            5
CPXPARAM_TimeLimit                               3600
CPXPARAM_MIP_Tolerances_MIPGap                   0.029999999999999999
Tried aggregator 2 times.
MIP Presolve eliminated 453 rows and 278 columns.
Aggregator did 86 substitutions.
Reduced MIP has 1448 rows, 1139 columns, and 5391 nonzeros.
Reduced MIP has 960 binaries, 179 generals, 0 SOSs, and 0 indicators.
Presolve time = 0.02 sec. (5.16 ticks)
Found incumbent of value 834.000000 after 0.04 sec. (30.08 ticks)
Probing fixed 106 vars, tightened 103 bounds.
Probing time = 0.01 sec. (7.07 ticks)
Tried aggregator 1 time.
Detecting symmetries...
MIP Presolve eliminated 140 rows and 109 columns.
Reduced MIP has 1308 rows, 1030 columns, and 4792 nonzeros.
Reduced MIP has 851 binaries, 179 generals, 0 SOSs, and 0 indicators.
Presolve time = 0.00 sec. (3.31 ticks)
Probing time = 0.00 sec. (2.64 ticks)
Clique table members: 3351.
MIP emphasis: heuristic.
MIP search method: dynamic search.
Parallel mode: deterministic, using up to 8 threads.
Root relaxation solution time = 0.03 sec. (20.68 ticks)

        Nodes                                         Cuts/
   Node  Left     Objective  IInf  Best Integer    Best Bound    ItCnt     Gap

*     0+    0                          834.0000        0.0000           100.00%
*     0     0      integral     0      349.0000      349.0000      812    0.00%
Elapsed time = 0.10 sec. (67.35 ticks, tree = 0.00 MB, solutions = 2)
Version identifier: 22.1.1.0 | 2022-11-28 | 9160aff4d
CPXPARAM_Threads                                 8
CPXPARAM_Emphasis_MIP                            5
CPXPARAM_TimeLimit                               3600
CPXPARAM_MIP_Tolerances_MIPGap                   0.029999999999999999
Tried aggregator 2 times.
MIP Presolve eliminated 572 rows and 374 columns.
Aggregator did 84 substitutions.
Reduced MIP has 1576 rows, 1237 columns, and 5812 nonzeros.
Reduced MIP has 1046 binaries, 191 generals, 0 SOSs, and 0 indicators.
Presolve time = 0.01 sec. (7.86 ticks)
Probing fixed 117 vars, tightened 111 bounds.
Probing time = 0.01 sec. (8.39 ticks)
Tried aggregator 1 time.
MIP Presolve eliminated 164 rows and 130 columns.
Reduced MIP has 1412 rows, 1107 columns, and 5145 nonzeros.
Reduced MIP has 916 binaries, 191 generals, 0 SOSs, and 0 indicators.
Presolve time = 0.01 sec. (4.02 ticks)
Probing time = 0.00 sec. (2.78 ticks)
Tried aggregator 1 time.
Detecting symmetries...
Reduced MIP has 1412 rows, 1107 columns, and 5145 nonzeros.
Reduced MIP has 916 binaries, 191 generals, 0 SOSs, and 0 indicators.
Presolve time = 0.00 sec. (3.28 ticks)
Probing time = 0.00 sec. (2.80 ticks)
Clique table members: 3576.
MIP emphasis: heuristic.
MIP search method: dynamic search.
Parallel mode: deterministic, using up to 8 threads.
Root relaxation solution time = 0.03 sec. (9.69 ticks)

        Nodes                                         Cuts/
   Node  Left     Objective  IInf  Best Integer    Best Bound    ItCnt     Gap

*     0     0      integral     0      364.0000      364.0000      533    0.00%
Elapsed time = 0.11 sec. (65.94 ticks, tree = 0.00 MB, solutions = 1)

Root node processing (before b&c):
  Real time             =    0.10 sec. (67.40 ticks)
Parallel b&c, 8 threads:
  Real time             =    0.00 sec. (0.00 ticks)
  Sync time (average)   =    0.00 sec.
  Wait time (average)   =    0.00 sec.
                          ------------
Total (root+branch&cut) =    0.10 sec. (67.40 ticks)
Version identifier: 22.1.1.0 | 2022-11-28 | 9160aff4d
CPXPARAM_Threads                                 8
CPXPARAM_Emphasis_MIP                            5
CPXPARAM_TimeLimit                               3600
CPXPARAM_MIP_Tolerances_MIPGap                   0.029999999999999999
Tried aggregator 2 times.
MIP Presolve eliminated 590 rows and 388 columns.
Aggregator did 85 substitutions.
Reduced MIP has 1632 rows, 1279 columns, and 6029 nonzeros.
Reduced MIP has 1081 binaries, 198 generals, 0 SOSs, and 0 indicators.
Presolve time = 0.01 sec. (8.12 ticks)
Probing fixed 139 vars, tightened 132 bounds.
Probing time = 0.01 sec. (9.00 ticks)
Tried aggregator 1 time.
MIP Presolve eliminated 191 rows and 152 columns.
Reduced MIP has 1441 rows, 1127 columns, and 5232 nonzeros.
Reduced MIP has 929 binaries, 198 generals, 0 SOSs, and 0 indicators.
Presolve time = 0.01 sec. (4.10 ticks)
Probing time = 0.00 sec. (2.77 ticks)
Tried aggregator 1 time.
Detecting symmetries...
Reduced MIP has 1441 rows, 1127 columns, and 5232 nonzeros.
Reduced MIP has 929 binaries, 198 generals, 0 SOSs, and 0 indicators.
Presolve time = 0.00 sec. (3.33 ticks)
Probing time = 0.00 sec. (2.80 ticks)
Clique table members: 3695.
MIP emphasis: heuristic.
MIP search method: dynamic search.
Parallel mode: deterministic, using up to 8 threads.
Root relaxation solution time = 0.04 sec. (24.91 ticks)

        Nodes                                         Cuts/
   Node  Left     Objective  IInf  Best Integer    Best Bound    ItCnt     Gap

      0     0      364.0000    48                    364.0000      698         
*     0+    0                          364.0000      364.0000             0.00%
      0     0        cutoff            364.0000      364.0000      698    0.00%
Elapsed time = 0.15 sec. (100.60 ticks, tree = 0.01 MB, solutions = 1)

Root node processing (before b&c):
  Real time             =    0.11 sec. (66.00 ticks)
Parallel b&c, 8 threads:
  Real time             =    0.00 sec. (0.00 ticks)
  Sync time (average)   =    0.00 sec.
  Wait time (average)   =    0.00 sec.
                          ------------
Total (root+branch&cut) =    0.11 sec. (66.00 ticks)
Version identifier: 22.1.1.0 | 2022-11-28 | 9160aff4d
CPXPARAM_Threads                                 8
CPXPARAM_Emphasis_MIP                            5
CPXPARAM_TimeLimit                               3600
CPXPARAM_MIP_Tolerances_MIPGap                   0.029999999999999999
Tried aggregator 2 times.
MIP Presolve eliminated 612 rows and 407 columns.
Aggregator did 85 substitutions.
Reduced MIP has 1725 rows, 1357 columns, and 6407 nonzeros.
Reduced MIP has 1147 binaries, 210 generals, 0 SOSs, and 0 indicators.
Presolve time = 0.02 sec. (8.57 ticks)
Probing fixed 145 vars, tightened 138 bounds.
Probing time = 0.02 sec. (9.85 ticks)
Tried aggregator 1 time.
MIP Presolve eliminated 197 rows and 158 columns.
Reduced MIP has 1528 rows, 1199 columns, and 5574 nonzeros.
Reduced MIP has 989 binaries, 210 generals, 0 SOSs, and 0 indicators.
Presolve time = 0.01 sec. (4.34 ticks)
Probing time = 0.00 sec. (2.85 ticks)
Tried aggregator 1 time.
Detecting symmetries...
Reduced MIP has 1528 rows, 1199 columns, and 5574 nonzeros.
Reduced MIP has 989 binaries, 210 generals, 0 SOSs, and 0 indicators.
Presolve time = 0.00 sec. (3.53 ticks)
Probing time = 0.00 sec. (2.85 ticks)
Clique table members: 3936.
MIP emphasis: heuristic.
MIP search method: dynamic search.
Parallel mode: deterministic, using up to 8 threads.
Root relaxation solution time = 0.04 sec. (21.06 ticks)

        Nodes                                         Cuts/
   Node  Left     Objective  IInf  Best Integer    Best Bound    ItCnt     Gap

*     0     0      integral     0      364.0000      364.0000      846    0.00%
Elapsed time = 0.14 sec. (97.65 ticks, tree = 0.00 MB, solutions = 1)
Version identifier: 22.1.1.0 | 2022-11-28 | 9160aff4d
CPXPARAM_Threads                                 8
CPXPARAM_Emphasis_MIP                            5
CPXPARAM_TimeLimit                               3600
CPXPARAM_MIP_Tolerances_MIPGap                   0.029999999999999999
Tried aggregator 2 times.
MIP Presolve eliminated 689 rows and 472 columns.
Aggregator did 85 substitutions.
Reduced MIP has 1763 rows, 1389 columns, and 6555 nonzeros.
Reduced MIP has 1173 binaries, 216 generals, 0 SOSs, and 0 indicators.
Presolve time = 0.02 sec. (8.84 ticks)
Found incumbent of value 768.000000 after 0.05 sec. (29.86 ticks)
Probing fixed 147 vars, tightened 140 bounds.
Probing time = 0.02 sec. (10.18 ticks)
Tried aggregator 1 time.
MIP Presolve eliminated 199 rows and 160 columns.
Reduced MIP has 1564 rows, 1229 columns, and 5712 nonzeros.
Reduced MIP has 1013 binaries, 216 generals, 0 SOSs, and 0 indicators.
Presolve time = 0.01 sec. (4.44 ticks)
Probing time = 0.00 sec. (2.89 ticks)
Tried aggregator 1 time.
Detecting symmetries...
Reduced MIP has 1564 rows, 1229 columns, and 5712 nonzeros.
Reduced MIP has 1013 binaries, 216 generals, 0 SOSs, and 0 indicators.
Presolve time = 0.00 sec. (3.62 ticks)
Probing time = 0.00 sec. (2.90 ticks)
Clique table members: 4001.
MIP emphasis: heuristic.
MIP search method: dynamic search.
Parallel mode: deterministic, using up to 8 threads.
Root relaxation solution time = 0.03 sec. (25.27 ticks)

        Nodes                                         Cuts/
   Node  Left     Objective  IInf  Best Integer    Best Bound    ItCnt     Gap

*     0+    0                          768.0000        0.0000           100.00%
      0     0      375.8000   131      768.0000      375.8000      717   51.07%
*     0+    0                          416.0000      375.8000             9.66%
*     0+    0                          400.0000      375.8000             6.05%

Mixed integer rounding cuts applied:  1
Gomory fractional cuts applied:  2

Root node processing (before b&c):
  Real time             =    0.27 sec. (199.26 ticks)
Parallel b&c, 8 threads:
  Real time             =    0.00 sec. (0.00 ticks)
  Sync time (average)   =    0.00 sec.
  Wait time (average)   =    0.00 sec.
                          ------------
Total (root+branch&cut) =    0.27 sec. (199.26 ticks)

Root node processing (before b&c):
  Real time             =    0.14 sec. (97.71 ticks)
Parallel b&c, 8 threads:
  Real time             =    0.00 sec. (0.00 ticks)
  Sync time (average)   =    0.00 sec.
  Wait time (average)   =    0.00 sec.
                          ------------
Total (root+branch&cut) =    0.14 sec. (97.71 ticks)

Root node processing (before b&c):
  Real time             =    0.15 sec. (100.66 ticks)
Parallel b&c, 8 threads:
  Real time             =    0.00 sec. (0.00 ticks)
  Sync time (average)   =    0.00 sec.
  Wait time (average)   =    0.00 sec.
                          ------------
Total (root+branch&cut) =    0.15 sec. (100.66 ticks)

Root node processing (before b&c):
  Real time             =    0.08 sec. (40.29 ticks)
Parallel b&c, 8 threads:
  Real time             =    0.00 sec. (0.00 ticks)
  Sync time (average)   =    0.00 sec.
  Wait time (average)   =    0.00 sec.
                          ------------
Total (root+branch&cut) =    0.08 sec. (40.29 ticks)

Root node processing (before b&c):
  Real time             =    0.05 sec. (21.55 ticks)
Parallel b&c, 8 threads:
  Real time             =    0.00 sec. (0.00 ticks)
  Sync time (average)   =    0.00 sec.
  Wait time (average)   =    0.00 sec.
                          ------------
Total (root+branch&cut) =    0.05 sec. (21.55 ticks)
